<number of tasks>
50

<cycle time>
1000

<order strength>
0.596


<task times>
1 669
2 321
3 445
4 584
5 520
6 439
7 575
8 609
9 421
10 288
11 619
12 519
13 499
14 643
15 607
16 522
17 282
18 513
19 682
20 599
21 648
22 532
23 476
24 413
25 464
26 455
27 479
28 499
29 474
30 703
31 443
32 437
33 391
34 707
35 660
36 588
37 299
38 498
39 602
40 377
41 434
42 783
43 664
44 371
45 437
46 589
47 607
48 630
49 392
50 548

<precedence relations>
1,9
1,12
1,18
2,7
2,8
2,10
2,13
3,10
3,11
4,49
5,6
5,13
6,15
7,29
8,16
8,24
9,39
9,45
10,14
11,14
11,18
12,14
13,19
13,23
14,16
14,17
14,19
15,16
15,17
15,18
15,24
16,22
16,25
17,23
17,49
18,25
19,20
19,21
19,24
20,26
20,27
20,28
21,44
22,26
23,39
23,43
24,36
25,27
25,28
26,32
27,29
28,29
28,30
28,31
28,32
29,33
29,34
30,48
30,49
31,40
32,35
32,38
33,36
33,38
33,43
34,40
34,42
34,44
34,45
34,47
35,37
35,39
35,40
36,44
37,43
37,45
37,47
39,41
39,42
40,46
40,48
42,50
44,49
45,50
46,49
47,48

<end>
